peakDumbCharging = 14800; 
Machine = anon_enum(16); 
machineSpeed = [3700,3700,3700,3700,3700,3700,3700,3700,3700,3700,3700,3700,3700,3700,3700,3700]; 
machineLoad = [3700,3700,3700,3700,3700,3700,3700,3700,3700,3700,3700,3700,3700,3700,3700,3700]; 
Car = anon_enum(17); 
demandCar = [7720,8080,25400,2080,2680,2640,2600,14880,13560,4920,10600,10560,5240,14480,2920,10040,19160]; 
arrivalCar = [67,66,62,61,60,60,57,55,54,51,51,50,49,45,42,42,39]; 
departureCar = [72,72,71,64,63,63,58,62,60,54,55,54,52,53,45,48,45]; 
